NAME /Users/henri/Research/solvers/instances/idol-instances/robust/collection/cbp_Subramanyam_et_al_2020/CapBud_N10_4/models/uncertain_technology_matrix/
ROWS
 N  OBJ
 L  capacity
 L  c_565
 L  c_566
 L  c_567
 L  c_568
 L  c_569
 L  c_570
 L  c_571
 L  c_572
 L  c_573
 L  c_574
COLUMNS
    MARKER    'MARKER'                 'INTORG'
    x_0        OBJ        1.94058
    x_0        c_565      1
    x_0        capacity   0.388116
    x_1        OBJ        9.92887
    x_1        c_566      1
    x_1        capacity   1.98577
    x_2        OBJ        5.00021
    x_2        c_567      1
    x_2        capacity   1.00004
    x_3        OBJ        9.96541
    x_3        c_568      1
    x_3        capacity   1.99308
    x_4        OBJ        6.58604
    x_4        c_569      1
    x_4        capacity   1.31721
    x_5        OBJ        9.30428
    x_5        c_570      1
    x_5        capacity   1.86086
    x_6        OBJ        6.43419
    x_6        c_571      1
    x_6        capacity   1.28684
    x_7        OBJ        2.46577
    x_7        c_572      1
    x_7        capacity   0.493154
    x_8        OBJ        3.15022
    x_8        c_573      1
    x_8        capacity   0.630044
    x_9        OBJ        9.02979
    x_9        c_574      1
    x_9        capacity   1.80596
    y_0        OBJ        1.55246
    y_0        c_565      1
    y_0        capacity   0.388116
    y_1        OBJ        7.94309
    y_1        c_566      1
    y_1        capacity   1.98577
    y_2        OBJ        4.00017
    y_2        c_567      1
    y_2        capacity   1.00004
    y_3        OBJ        7.97233
    y_3        c_568      1
    y_3        capacity   1.99308
    y_4        OBJ        5.26883
    y_4        c_569      1
    y_4        capacity   1.31721
    y_5        OBJ        7.44343
    y_5        c_570      1
    y_5        capacity   1.86086
    y_6        OBJ        5.14735
    y_6        c_571      1
    y_6        capacity   1.28684
    y_7        OBJ        1.97262
    y_7        c_572      1
    y_7        capacity   0.493154
    y_8        OBJ        2.52018
    y_8        c_573      1
    y_8        capacity   0.630044
    y_9        OBJ        7.22383
    y_9        c_574      1
    y_9        capacity   1.80596
    MARKER    'MARKER'                 'INTEND'
RHS
    RHS       capacity   31.9027
    RHS       c_565      1
    RHS       c_566      1
    RHS       c_567      1
    RHS       c_568      1
    RHS       c_569      1
    RHS       c_570      1
    RHS       c_571      1
    RHS       c_572      1
    RHS       c_573      1
    RHS       c_574      1
BOUNDS
 LI BND       x_0        0
 UI BND       x_0        1
 LI BND       x_1        0
 UI BND       x_1        1
 LI BND       x_2        0
 UI BND       x_2        1
 LI BND       x_3        0
 UI BND       x_3        1
 LI BND       x_4        0
 UI BND       x_4        1
 LI BND       x_5        0
 UI BND       x_5        1
 LI BND       x_6        0
 UI BND       x_6        1
 LI BND       x_7        0
 UI BND       x_7        1
 LI BND       x_8        0
 UI BND       x_8        1
 LI BND       x_9        0
 UI BND       x_9        1
 LI BND       y_0        0
 UI BND       y_0        1
 LI BND       y_1        0
 UI BND       y_1        1
 LI BND       y_2        0
 UI BND       y_2        1
 LI BND       y_3        0
 UI BND       y_3        1
 LI BND       y_4        0
 UI BND       y_4        1
 LI BND       y_5        0
 UI BND       y_5        1
 LI BND       y_6        0
 UI BND       y_6        1
 LI BND       y_7        0
 UI BND       y_7        1
 LI BND       y_8        0
 UI BND       y_8        1
 LI BND       y_9        0
 UI BND       y_9        1
ENDATA
